num_offers = 25;
num_halls = 10;
start=[30,8,11,63,17,15,26,2,39,11,75,6,6,78,53,75,5,17,4,12,31,12,9,17,26];
end=[69,15,70,74,87,92,89,11,90,100,93,39,11,88,59,92,33,76,58,17,61,28,63,98,44];
price=[2719,253,838,997,6377,5152,6213,560,2571,6107,551,1261,191,1061,385,1435,2208,655,1757,302,1337,916,4432,4026,1240];
requirement=[224,985,534,237,822,232,441,231,319,510,467,504,362,619,606,695,645,364,333,954,440,461,312,951,672];
capacity=[697,763,484,600,626,843,762,864,537,603];
